\ Model Capacitated_Facility_Location
\ LP format - for model browsing. Use MPS format to capture full model detail.
\ Signature: 0xcd1d2eaf48cc727
Minimize
  175 y[1] + 300 y[2] + 375 y[3] + 500 y[4] + 200 y[5] + 260 y[6] + 220 y[7]
   + 320 y[8] + 280 y[9] + 350 y[10] + 420 y[11] + 470 y[12] + 520 y[13]
   + 560 y[14] + 8 x[0,0] + 4 x[0,1] + 3 x[0,2] + 6 x[0,3] + 7 x[0,4]
   + 5 x[0,5] + 9 x[0,6] + 8 x[0,7] + 5 x[1,0] + 2 x[1,1] + 3 x[1,2]
   + 5 x[1,3] + 6 x[1,4] + 4 x[1,5] + 7 x[1,6] + 6 x[1,7] + 4 x[2,0]
   + 3 x[2,1] + 4 x[2,2] + 6 x[2,3] + 5 x[2,4] + 5 x[2,5] + 6 x[2,6]
   + 7 x[2,7] + 9 x[3,0] + 7 x[3,1] + 5 x[3,2] + 8 x[3,3] + 9 x[3,4]
   + 6 x[3,5] + 10 x[3,6] + 7 x[3,7] + 10 x[4,0] + 4 x[4,1] + 2 x[4,2]
   + 6 x[4,3] + 8 x[4,4] + 5 x[4,5] + 7 x[4,6] + 3 x[4,7] + 6 x[5,0]
   + 5 x[5,1] + 4 x[5,2] + 5 x[5,3] + 7 x[5,4] + 6 x[5,5] + 8 x[5,6]
   + 5 x[5,7] + 7 x[6,0] + 6 x[6,1] + 5 x[6,2] + 4 x[6,3] + 6 x[6,4]
   + 7 x[6,5] + 9 x[6,6] + 6 x[6,7] + 5 x[7,0] + 4 x[7,1] + 6 x[7,2]
   + 3 x[7,3] + 5 x[7,4] + 6 x[7,5] + 7 x[7,6] + 6 x[7,7] + 8 x[8,0]
   + 7 x[8,1] + 6 x[8,2] + 7 x[8,3] + 9 x[8,4] + 8 x[8,5] + 10 x[8,6]
   + 7 x[8,7] + 6 x[9,0] + 5 x[9,1] + 7 x[9,2] + 4 x[9,3] + 6 x[9,4]
   + 5 x[9,5] + 7 x[9,6] + 5 x[9,7] + 9 x[10,0] + 6 x[10,1] + 4 x[10,2]
   + 6 x[10,3] + 8 x[10,4] + 7 x[10,5] + 9 x[10,6] + 6 x[10,7] + 7 x[11,0]
   + 5 x[11,1] + 6 x[11,2] + 5 x[11,3] + 6 x[11,4] + 5 x[11,5] + 8 x[11,6]
   + 5 x[11,7] + 8 x[12,0] + 6 x[12,1] + 5 x[12,2] + 6 x[12,3] + 7 x[12,4]
   + 6 x[12,5] + 8 x[12,6] + 7 x[12,7] + 9 x[13,0] + 5 x[13,1] + 3 x[13,2]
   + 5 x[13,3] + 7 x[13,4] + 4 x[13,5] + 6 x[13,6] + 4 x[13,7] + 10 x[14,0]
   + 6 x[14,1] + 4 x[14,2] + 5 x[14,3] + 8 x[14,4] + 5 x[14,5] + 7 x[14,6]
   + 5 x[14,7]
Subject To
 demand[B1]: x[0,0] + x[1,0] + x[2,0] + x[3,0] + x[4,0] + x[5,0] + x[6,0]
   + x[7,0] + x[8,0] + x[9,0] + x[10,0] + x[11,0] + x[12,0] + x[13,0]
   + x[14,0] = 30
 demand[B2]: x[0,1] + x[1,1] + x[2,1] + x[3,1] + x[4,1] + x[5,1] + x[6,1]
   + x[7,1] + x[8,1] + x[9,1] + x[10,1] + x[11,1] + x[12,1] + x[13,1]
   + x[14,1] = 25
 demand[B3]: x[0,2] + x[1,2] + x[2,2] + x[3,2] + x[4,2] + x[5,2] + x[6,2]
   + x[7,2] + x[8,2] + x[9,2] + x[10,2] + x[11,2] + x[12,2] + x[13,2]
   + x[14,2] = 20
 demand[B4]: x[0,3] + x[1,3] + x[2,3] + x[3,3] + x[4,3] + x[5,3] + x[6,3]
   + x[7,3] + x[8,3] + x[9,3] + x[10,3] + x[11,3] + x[12,3] + x[13,3]
   + x[14,3] = 35
 demand[B5]: x[0,4] + x[1,4] + x[2,4] + x[3,4] + x[4,4] + x[5,4] + x[6,4]
   + x[7,4] + x[8,4] + x[9,4] + x[10,4] + x[11,4] + x[12,4] + x[13,4]
   + x[14,4] = 25
 demand[B6]: x[0,5] + x[1,5] + x[2,5] + x[3,5] + x[4,5] + x[5,5] + x[6,5]
   + x[7,5] + x[8,5] + x[9,5] + x[10,5] + x[11,5] + x[12,5] + x[13,5]
   + x[14,5] = 30
 demand[B7]: x[0,6] + x[1,6] + x[2,6] + x[3,6] + x[4,6] + x[5,6] + x[6,6]
   + x[7,6] + x[8,6] + x[9,6] + x[10,6] + x[11,6] + x[12,6] + x[13,6]
   + x[14,6] = 25
 demand[B8]: x[0,7] + x[1,7] + x[2,7] + x[3,7] + x[4,7] + x[5,7] + x[6,7]
   + x[7,7] + x[8,7] + x[9,7] + x[10,7] + x[11,7] + x[12,7] + x[13,7]
   + x[14,7] = 30
 cap[A1]: - 30 y[0] + x[0,0] + x[0,1] + x[0,2] + x[0,3] + x[0,4] + x[0,5]
   + x[0,6] + x[0,7] <= 0
 cap[A2]: - 10 y[1] + x[1,0] + x[1,1] + x[1,2] + x[1,3] + x[1,4] + x[1,5]
   + x[1,6] + x[1,7] <= 0
 cap[A3]: - 20 y[2] + x[2,0] + x[2,1] + x[2,2] + x[2,3] + x[2,4] + x[2,5]
   + x[2,6] + x[2,7] <= 0
 cap[A4]: - 30 y[3] + x[3,0] + x[3,1] + x[3,2] + x[3,3] + x[3,4] + x[3,5]
   + x[3,6] + x[3,7] <= 0
 cap[A5]: - 40 y[4] + x[4,0] + x[4,1] + x[4,2] + x[4,3] + x[4,4] + x[4,5]
   + x[4,6] + x[4,7] <= 0
 cap[A6]: - 20 y[5] + x[5,0] + x[5,1] + x[5,2] + x[5,3] + x[5,4] + x[5,5]
   + x[5,6] + x[5,7] <= 0
 cap[A7]: - 25 y[6] + x[6,0] + x[6,1] + x[6,2] + x[6,3] + x[6,4] + x[6,5]
   + x[6,6] + x[6,7] <= 0
 cap[A8]: - 30 y[7] + x[7,0] + x[7,1] + x[7,2] + x[7,3] + x[7,4] + x[7,5]
   + x[7,6] + x[7,7] <= 0
 cap[A9]: - 35 y[8] + x[8,0] + x[8,1] + x[8,2] + x[8,3] + x[8,4] + x[8,5]
   + x[8,6] + x[8,7] <= 0
 cap[A10]: - 20 y[9] + x[9,0] + x[9,1] + x[9,2] + x[9,3] + x[9,4] + x[9,5]
   + x[9,6] + x[9,7] <= 0
 cap[A11]: - 40 y[10] + x[10,0] + x[10,1] + x[10,2] + x[10,3] + x[10,4]
   + x[10,5] + x[10,6] + x[10,7] <= 0
 cap[A12]: - 25 y[11] + x[11,0] + x[11,1] + x[11,2] + x[11,3] + x[11,4]
   + x[11,5] + x[11,6] + x[11,7] <= 0
 cap[A13]: - 30 y[12] + x[12,0] + x[12,1] + x[12,2] + x[12,3] + x[12,4]
   + x[12,5] + x[12,6] + x[12,7] <= 0
 cap[A14]: - 50 y[13] + x[13,0] + x[13,1] + x[13,2] + x[13,3] + x[13,4]
   + x[13,5] + x[13,6] + x[13,7] <= 0
 cap[A15]: - 45 y[14] + x[14,0] + x[14,1] + x[14,2] + x[14,3] + x[14,4]
   + x[14,5] + x[14,6] + x[14,7] <= 0
Bounds
Binaries
 y[0] y[1] y[2] y[3] y[4] y[5] y[6] y[7] y[8] y[9] y[10] y[11] y[12] y[13]
 y[14]
End
